*NODE, NSET=Nall
       1,  1.00000e+00,  1.00000e+00,  0.00000e+00 
       2,  1.00000e+00,  0.00000e+00,  0.00000e+00 
       3,  1.00000e+00,  0.00000e+00,  1.00000e+00 
       4,  1.00000e+00,  1.00000e+00,  1.00000e+00 
       5,  0.00000e+00,  1.00000e+00,  0.00000e+00 
       6,  0.00000e+00,  0.00000e+00,  0.00000e+00 
       7,  0.00000e+00,  0.00000e+00,  1.00000e+00 
       8,  0.00000e+00,  1.00000e+00,  1.00000e+00  
*ELEMENT, TYPE=C3D8, ELSET=Eall
     1,     1,     2,     3,     4,     5,     6,     7,     8